* UNL main file generated by charmmgen
* author: Victor Bazterra 2004 CHPC
* 

Read rtf card name h2rwf_CHARMM.rtf

Read param card name h2rwf_CHARMM.prm

Read sequence card
* Reading the coordinates of residue
* 
    1
UNL
Generate UNL setup
Read coor card free
* Residues coordinate
* 
   39
    1    1 UNL  C     10.90600   2.12200 -13.22300
    2    1 UNL  C1     9.28300   3.78700 -14.70000
    3    1 UNL  C2     9.11200   2.40200 -14.84300
    4    1 UNL  C3     9.90000   1.54500 -14.12800
    5    1 UNL  C4    11.74600   1.30500 -12.46400
    6    1 UNL  C5    12.67700   1.87700 -11.62700
    7    1 UNL  C6    12.78300   3.25800 -11.53600
    8    1 UNL  C7    11.96000   4.07500 -12.28000
    9    1 UNL  C8    11.01400   3.51800 -13.13100
   10    1 UNL  O     10.20100   4.30500 -13.86800
   11    1 UNL  O1     8.57400   4.54200 -15.34200
   12    1 UNL  O2     9.76000   0.20500 -14.24900
   13    1 UNL  H      9.66800   0.01700 -15.19200
   14    1 UNL  C9     8.06600   1.86200 -15.78300
   15    1 UNL  C10    7.96500   2.77100 -17.00900
   16    1 UNL  C11    6.99400   2.17800 -17.99700
   17    1 UNL  C12    5.74300   2.93100 -18.37000
   18    1 UNL  O3     7.21700   1.09900 -18.48900
   19    1 UNL  C13    6.73500   1.81600 -15.08200
   20    1 UNL  C14    6.21500   2.96200 -14.50800
   21    1 UNL  C15    4.99300   2.92000 -13.86400
   22    1 UNL  C16    4.29000   1.73200 -13.79400
   23    1 UNL  C17    4.80900   0.58800 -14.36700
   24    1 UNL  C18    6.02900   0.63100 -15.01600
   25    1 UNL  H1    11.66900   0.27800 -12.53000
   26    1 UNL  H2    13.29900   1.27600 -11.06400
   27    1 UNL  H3    13.48500   3.67700 -10.90500
   28    1 UNL  H4    12.04600   5.10100 -12.20500
   29    1 UNL  H5     8.34000   0.87500 -16.09200
   30    1 UNL  H6     8.92800   2.86100 -17.46600
   31    1 UNL  H7     7.62000   3.73800 -16.70800
   32    1 UNL  H8     5.71400   3.86000 -17.84000
   33    1 UNL  H9     4.88500   2.34600 -18.11200
   34    1 UNL  H10    5.74200   3.12100 -19.42300
   35    1 UNL  H11    6.74000   3.84900 -14.56100
   36    1 UNL  H12    4.60600   3.77500 -13.43600
   37    1 UNL  H13    3.37700   1.70000 -13.31300
   38    1 UNL  H14    4.28600  -0.30000 -14.31100
   39    1 UNL  H15    6.41200  -0.22300 -15.45100
Energy ihbfrq 0 inbfrq -1
Open write card unit 14 name tmp.out
Write energy card unit 14
* UNL energy before the optimization
* 
Minimise Abnr Nstep 5000 Tolgrd 0.00001
Write energy card unit 14
* UNL energy after optimization
* 
Write coor card unit 14
* UNL energy after optimization
* 
