* UNL main file generated by charmmgen
* author: Victor Bazterra 2004 CHPC
* 

Read rtf card name h2ea1_CHARMM.rtf

Read param card name h2ea1_CHARMM.prm

Read sequence card
* Reading the coordinates of residue
* 
    1
UNL
Generate UNL setup
Read coor card free
* Residues coordinate
* 
  108
    1    1 UNL  O      6.84300  -1.37000 -24.88900
    2    1 UNL  O1     8.50400   2.61500 -22.69700
    3    1 UNL  O2    11.44300  -0.14500 -23.12800
    4    1 UNL  O3     8.30500   0.78400 -25.29000
    5    1 UNL  O4     7.06900  -1.34100 -22.59200
    6    1 UNL  O5    10.35800  -1.77100 -24.82800
    7    1 UNL  O6     8.68000   4.88000 -23.06800
    8    1 UNL  O7    10.25500   4.50500 -20.40500
    9    1 UNL  O8    12.26300   0.61900 -21.11100
   10    1 UNL  N      6.70000   2.31700 -24.61600
   11    1 UNL  N1     9.32700  -2.92900 -23.10100
   12    1 UNL  N2    11.53000   3.20300 -21.83900
   13    1 UNL  C      7.64300   3.45400 -24.74500
   14    1 UNL  C1     8.10400  -3.11000 -23.90700
   15    1 UNL  C2     6.12800  -0.11900 -24.87100
   16    1 UNL  C3    11.64200   2.17300 -22.89300
   17    1 UNL  C4    11.33900  -1.50900 -22.66700
   18    1 UNL  C5     9.10500   2.64100 -21.39800
   19    1 UNL  C6     7.14400   1.02700 -24.94100
   20    1 UNL  C7     7.28300  -1.84700 -23.68500
   21    1 UNL  C8    10.32300  -2.09800 -23.63600
   22    1 UNL  C9     8.29700   3.76400 -23.39800
   23    1 UNL  C10   10.33800   3.54600 -21.18000
   24    1 UNL  C11   11.83700   0.81400 -22.24000
   25    1 UNL  C12    5.37200   2.62800 -24.07800
   26    1 UNL  C13    9.37700  -3.49300 -21.75000
   27    1 UNL  C14   12.74900   3.91600 -21.45700
   28    1 UNL  C15    5.23200  -0.10100 -26.10300
   29    1 UNL  C16    6.06200   0.08500 -27.37100
   30    1 UNL  C17    4.40600  -1.38400 -26.18800
   31    1 UNL  C18    7.25800  -4.33600 -23.59200
   32    1 UNL  C19    5.81000  -4.08800 -24.02100
   33    1 UNL  C20    7.79400  -5.60700 -24.27500
   34    1 UNL  C21    7.26100  -6.89700 -23.66500
   35    1 UNL  C22    7.01000   4.70100 -25.36100
   36    1 UNL  C23    6.59500   5.67300 -24.25300
   37    1 UNL  C24    7.95300   5.41100 -26.34900
   38    1 UNL  C25    8.89300   4.46400 -27.08000
   39    1 UNL  C26   12.67800  -2.21100 -22.79900
   40    1 UNL  C27   13.27100  -1.98000 -24.18700
   41    1 UNL  C28   12.53000  -3.70600 -22.52100
   42    1 UNL  C29    8.00100   2.94600 -20.38500
   43    1 UNL  C30    6.66400   2.37300 -20.85500
   44    1 UNL  C31    8.36500   2.39500 -19.00800
   45    1 UNL  C32   12.74100   2.42000 -23.92500
   46    1 UNL  C33   12.18000   2.32900 -25.34400
   47    1 UNL  C34   13.88900   1.42900 -23.74000
   48    1 UNL  H      8.40200   3.14700 -25.43400
   49    1 UNL  H1     8.40400  -3.27600 -24.92100
   50    1 UNL  H2     5.54300  -0.00700 -23.98200
   51    1 UNL  H3    10.72700   2.21500 -23.44700
   52    1 UNL  H4    11.05600  -1.60300 -21.63900
   53    1 UNL  H5     9.53900   1.67200 -21.26700
   54    1 UNL  H6     4.78700   1.73300 -24.03300
   55    1 UNL  H7     4.88800   3.34000 -24.71300
   56    1 UNL  H8     5.47300   3.03800 -23.09500
   57    1 UNL  H9     8.50500  -4.08900 -21.58000
   58    1 UNL  H10    9.41200  -2.69900 -21.03300
   59    1 UNL  H11   10.25100  -4.10200 -21.65000
   60    1 UNL  H12   13.57100   3.55300 -22.03700
   61    1 UNL  H13   12.94600   3.75400 -20.41800
   62    1 UNL  H14   12.62100   4.96300 -21.63600
   63    1 UNL  H15    4.56100   0.72800 -26.01500
   64    1 UNL  H16    6.74100  -0.73500 -27.47600
   65    1 UNL  H17    6.61400   0.99900 -27.30500
   66    1 UNL  H18    5.41200   0.12200 -28.22000
   67    1 UNL  H19    5.06100  -2.22500 -26.27600
   68    1 UNL  H20    3.76500  -1.34000 -27.04400
   69    1 UNL  H21    3.81300  -1.48600 -25.30300
   70    1 UNL  H22    7.30600  -4.49700 -22.53500
   71    1 UNL  H23    5.77400  -3.92900 -25.07800
   72    1 UNL  H24    5.43200  -3.22300 -23.51700
   73    1 UNL  H25    5.21200  -4.93900 -23.76800
   74    1 UNL  H26    8.86100  -5.61000 -24.19500
   75    1 UNL  H27    7.46300  -5.58000 -25.29200
   76    1 UNL  H28    7.57100  -6.96300 -22.64300
   77    1 UNL  H29    7.64600  -7.73400 -24.20900
   78    1 UNL  H30    6.19200  -6.90000 -23.71500
   79    1 UNL  H31    6.15000   4.38300 -25.91300
   80    1 UNL  H32    7.46200   5.98400 -23.70900
   81    1 UNL  H33    5.91200   5.18600 -23.58800
   82    1 UNL  H34    6.12100   6.52800 -24.68800
   83    1 UNL  H35    8.54200   6.11900 -25.80500
   84    1 UNL  H36    7.33800   5.87700 -27.09000
   85    1 UNL  H37    9.52800   3.97500 -26.37200
   86    1 UNL  H38    9.49100   5.01900 -27.77200
   87    1 UNL  H39    8.32000   3.73200 -27.61000
   88    1 UNL  H40   13.34800  -1.79800 -22.07400
   89    1 UNL  H41   12.61500  -2.38700 -24.92700
   90    1 UNL  H42   14.22400  -2.46100 -24.25200
   91    1 UNL  H43   13.38900  -0.93000 -24.35400
   92    1 UNL  H44   11.86300  -4.13800 -23.23800
   93    1 UNL  H45   12.13600  -3.84800 -21.53600
   94    1 UNL  H46   13.48700  -4.17900 -22.59500
   95    1 UNL  H47    7.90400   4.00900 -20.30700
   96    1 UNL  H48    6.74200   1.30900 -20.93900
   97    1 UNL  H49    6.41300   2.78900 -21.80900
   98    1 UNL  H50    5.90100   2.62000 -20.14600
   99    1 UNL  H51    8.46700   1.33100 -19.06500
  100    1 UNL  H52    7.59300   2.64200 -18.30900
  101    1 UNL  H53    9.29000   2.82500 -18.68500
  102    1 UNL  H54   13.12200   3.40900 -23.77500
  103    1 UNL  H55   11.79400   1.34500 -25.51200
  104    1 UNL  H56   12.95900   2.53200 -26.04900
  105    1 UNL  H57   11.39500   3.04600 -25.46400
  106    1 UNL  H58   13.52700   0.43300 -23.88600
  107    1 UNL  H59   14.28500   1.52300 -22.75100
  108    1 UNL  H60   14.65800   1.63700 -24.45400
Energy ihbfrq 0 inbfrq -1
Open write card unit 14 name tmp.out
Write energy card unit 14
* UNL energy before the optimization
* 
Minimise Abnr Nstep 5000 Tolgrd 0.00001
Write energy card unit 14
* UNL energy after optimization
* 
Write coor card unit 14
* UNL energy after optimization
* 
