* UNL main file generated by charmmgen
* author: Victor Bazterra 2004 CHPC
* 

Read rtf card name h2eb1_CHARMM.rtf

Read param card name h2eb1_CHARMM.prm

Read sequence card
* Reading the coordinates of residue
* 
    1
UNL
Generate UNL setup
Read coor card free
* Residues coordinate
* 
  105
    1    1 UNL  O      5.70900   6.43500 -24.34400
    2    1 UNL  O1     9.07800  10.42800 -24.31800
    3    1 UNL  O2    10.84100   6.08100 -24.90200
    4    1 UNL  O3     6.69900   9.23100 -22.55500
    5    1 UNL  O4     6.69500   7.39300 -26.19600
    6    1 UNL  O5     7.85400   6.54200 -22.89400
    7    1 UNL  O6    12.77100   8.66800 -24.60000
    8    1 UNL  O7     9.89100  12.52800 -24.77300
    9    1 UNL  O8    12.09800   6.27600 -22.98400
   10    1 UNL  N      6.16400   9.77900 -24.74500
   11    1 UNL  N1     8.91300   4.68700 -23.78200
   12    1 UNL  N2    10.87100   9.15300 -25.85100
   13    1 UNL  C      5.17300   8.68600 -24.80500
   14    1 UNL  C1    10.09700   4.93200 -22.93000
   15    1 UNL  C2    11.04100  10.61200 -25.69500
   16    1 UNL  C3     8.00400  10.98100 -23.53200
   17    1 UNL  C4     6.55100   5.26600 -24.44300
   18    1 UNL  C5    11.75800   6.81100 -25.73700
   19    1 UNL  C6     6.90300   9.92400 -23.55700
   20    1 UNL  C7     5.94700   7.44800 -25.22900
   21    1 UNL  C8     7.82400   5.56000 -23.64300
   22    1 UNL  C9    11.85000   8.29000 -25.33100
   23    1 UNL  C10    9.94200  11.30800 -24.89600
   24    1 UNL  C11   11.12200   5.85100 -23.59100
   25    1 UNL  C12    6.33600  10.61400 -25.93900
   26    1 UNL  C13    8.97300   3.57700 -24.73600
   27    1 UNL  C14    9.77500   8.68700 -26.70200
   28    1 UNL  C15    5.77900   4.11300 -23.81900
   29    1 UNL  C16    4.34300   4.53100 -23.50800
   30    1 UNL  C17    5.79300   2.89300 -24.74000
   31    1 UNL  C18    3.98700   8.90900 -25.73600
   32    1 UNL  C19    4.37200   8.53300 -27.16800
   33    1 UNL  C20    2.76700   8.11700 -25.23300
   34    1 UNL  C21    2.69200   8.00600 -23.71600
   35    1 UNL  C22   10.78500   3.65300 -22.45100
   36    1 UNL  C23   12.28900   3.72200 -22.70500
   37    1 UNL  C24   10.50400   3.41200 -20.96800
   38    1 UNL  C25    8.51400  11.23100 -22.11500
   39    1 UNL  C26    8.57800  12.72900 -21.82100
   40    1 UNL  C27    9.88400  10.58700 -21.91300
   41    1 UNL  C28   13.12500   6.13200 -25.80900
   42    1 UNL  C29   13.99900   6.79800 -26.86900
   43    1 UNL  C30   12.96900   4.64200 -26.10000
   44    1 UNL  C31   11.23400  11.29700 -27.04800
   45    1 UNL  C32   12.52600  12.11000 -27.05600
   46    1 UNL  C33   10.03700  12.18500 -27.37300
   47    1 UNL  H      4.71600   8.60400 -23.84100
   48    1 UNL  H1     9.70000   5.42800 -22.06900
   49    1 UNL  H2    11.93000  10.71700 -25.10900
   50    1 UNL  H3     7.63800  11.91400 -23.90700
   51    1 UNL  H4     6.81200   5.02100 -25.45100
   52    1 UNL  H5    11.36200   6.79700 -26.73100
   53    1 UNL  H6     5.65300  10.29500 -26.69800
   54    1 UNL  H7     7.33900  10.51900 -26.29900
   55    1 UNL  H8     6.14100  11.63600 -25.69000
   56    1 UNL  H9     8.05200   3.52200 -25.27800
   57    1 UNL  H10    9.13100   2.66000 -24.20700
   58    1 UNL  H11    9.78000   3.73800 -25.42000
   59    1 UNL  H12    9.15800   9.51700 -26.97600
   60    1 UNL  H13    9.18900   7.96800 -26.16800
   61    1 UNL  H14   10.17600   8.23500 -27.58500
   62    1 UNL  H15    6.26000   3.84800 -22.90100
   63    1 UNL  H16    3.84500   4.80000 -24.41600
   64    1 UNL  H17    4.35200   5.37000 -22.84400
   65    1 UNL  H18    3.82600   3.71600 -23.04600
   66    1 UNL  H19    5.31600   3.13900 -25.66500
   67    1 UNL  H20    5.26900   2.08600 -24.27200
   68    1 UNL  H21    6.80500   2.59900 -24.92800
   69    1 UNL  H22    3.71600   9.94400 -25.73800
   70    1 UNL  H23    4.64900   7.50000 -27.20300
   71    1 UNL  H24    5.19800   9.13500 -27.48500
   72    1 UNL  H25    3.53800   8.70100 -27.81700
   73    1 UNL  H26    2.81300   7.12900 -25.64200
   74    1 UNL  H27    1.89500   8.65000 -25.55100
   75    1 UNL  H28    3.54900   7.47700 -23.35400
   76    1 UNL  H29    1.80400   7.47700 -23.44100
   77    1 UNL  H30    2.67100   8.98600 -23.28700
   78    1 UNL  H31   10.38600   2.83100 -23.00800
   79    1 UNL  H32   12.70600   4.53900 -22.15500
   80    1 UNL  H33   12.46800   3.86700 -23.75000
   81    1 UNL  H34   12.74700   2.80800 -22.38800
   82    1 UNL  H35   10.89600   4.22500 -20.39400
   83    1 UNL  H36   10.97100   2.50000 -20.66000
   84    1 UNL  H37    9.44800   3.34200 -20.81200
   85    1 UNL  H38    7.82600  10.78200 -21.42900
   86    1 UNL  H39    9.26200  13.19600 -22.49800
   87    1 UNL  H40    8.91100  12.88100 -20.81600
   88    1 UNL  H41    7.60600  13.15800 -21.94300
   89    1 UNL  H42   10.58700  11.02400 -22.59100
   90    1 UNL  H43    9.81500   9.53600 -22.09900
   91    1 UNL  H44   10.21000  10.75100 -20.90700
   92    1 UNL  H45   13.60600   6.24100 -24.85900
   93    1 UNL  H46   13.53400   6.70000 -27.82800
   94    1 UNL  H47   14.95900   6.32600 -26.88800
   95    1 UNL  H48   14.11700   7.83500 -26.63400
   96    1 UNL  H49   12.48900   4.51200 -27.04700
   97    1 UNL  H50   12.37500   4.18900 -25.33400
   98    1 UNL  H51   13.93400   4.18000 -26.12300
   99    1 UNL  H52   11.30700  10.54200 -27.80300
  100    1 UNL  H53   12.47300  12.87200 -26.30600
  101    1 UNL  H54   12.65600  12.56300 -28.01600
  102    1 UNL  H55   13.35500  11.46500 -26.85100
  103    1 UNL  H56    9.94600  12.94800 -26.62800
  104    1 UNL  H57    9.14600  11.59200 -27.38700
  105    1 UNL  H58   10.17900  12.63800 -28.33200
Energy ihbfrq 0 inbfrq -1
Open write card unit 14 name tmp.out
Write energy card unit 14
* UNL energy before the optimization
* 
Minimise Abnr Nstep 5000 Tolgrd 0.00001
Write energy card unit 14
* UNL energy after optimization
* 
Write coor card unit 14
* UNL energy after optimization
* 
