* UNL main file generated by charmmgen
* author: Victor Bazterra 2004 CHPC
* 

Read rtf card name h2ea_CHARMM.rtf

Read param card name h2ea_CHARMM.prm

Read sequence card
* Reading the coordinates of residue
* 
    1
UNL
Generate UNL setup
Read coor card free
* Residues coordinate
* 
  111
    1    1 UNL  O     11.42800  -0.13400 -23.14200
    2    1 UNL  O1     6.82100  -1.34900 -24.89400
    3    1 UNL  O2     8.49400   2.63000 -22.69600
    4    1 UNL  O3    10.33500  -1.75600 -24.84400
    5    1 UNL  O4    10.25400   4.51200 -20.40600
    6    1 UNL  O5     8.28500   0.80400 -25.29400
    7    1 UNL  O6    12.25500   0.62500 -21.12700
    8    1 UNL  O7     7.05300  -1.32400 -22.59700
    9    1 UNL  O8     8.67200   4.89500 -23.06400
   10    1 UNL  N      9.30800  -2.91400 -23.11600
   11    1 UNL  N1    11.52300   3.21200 -21.84700
   12    1 UNL  N2     6.68400   2.33900 -24.61200
   13    1 UNL  C      8.08200  -3.09300 -23.91900
   14    1 UNL  C1    11.63100   2.18300 -22.90300
   15    1 UNL  C2     7.62800   3.47400 -24.74000
   16    1 UNL  C3    11.32300  -1.49900 -22.68400
   17    1 UNL  C4     6.10700  -0.09700 -24.87200
   18    1 UNL  C5     9.09900   2.65100 -21.40000
   19    1 UNL  C6    10.30300  -2.08400 -23.65200
   20    1 UNL  C7    10.33300   3.55400 -21.18400
   21    1 UNL  C8     7.12500   1.04800 -24.94200
   22    1 UNL  C9    11.82600   0.82200 -22.25400
   23    1 UNL  C10    7.26300  -1.82900 -23.69200
   24    1 UNL  C11    8.28600   3.78100 -23.39500
   25    1 UNL  C12    9.36200  -3.48200 -21.76700
   26    1 UNL  C13   12.74400   3.92200 -21.46700
   27    1 UNL  C14    5.35800   2.65100 -24.07000
   28    1 UNL  C15   12.66100  -2.20300 -22.82200
   29    1 UNL  C16   13.25500  -1.96600 -24.20900
   30    1 UNL  C17   12.51200  -3.69900 -22.55200
   31    1 UNL  C18   12.72700   2.43200 -23.93800
   32    1 UNL  C19   13.89200   1.46800 -23.69900
   33    1 UNL  C20   12.21400   2.28400 -25.38100
   34    1 UNL  C21   11.16500   3.31800 -25.76300
   35    1 UNL  C22    7.23600  -4.31900 -23.60500
   36    1 UNL  C23    5.80500  -4.10300 -24.10600
   37    1 UNL  C24    7.81300  -5.60600 -24.22000
   38    1 UNL  C25    7.20900  -6.87900 -23.64300
   39    1 UNL  C26    7.99800   2.95600 -20.38200
   40    1 UNL  C27    6.66000   2.39500 -20.85500
   41    1 UNL  C28    8.36400   2.39000 -19.01100
   42    1 UNL  C29    5.20800  -0.07400 -26.10000
   43    1 UNL  C30    4.34700  -1.33500 -26.16200
   44    1 UNL  C31    6.03800   0.06900 -27.37500
   45    1 UNL  C32    6.99600   4.72300 -25.35200
   46    1 UNL  C33    6.55200   5.68300 -24.24300
   47    1 UNL  C34    7.94600   5.45300 -26.32000
   48    1 UNL  C35    7.73700   6.96000 -26.35300
   49    1 UNL  H      8.37900  -3.25700 -24.93400
   50    1 UNL  H1    10.71400   2.22600 -23.45300
   51    1 UNL  H2     8.38500   3.16600 -25.43000
   52    1 UNL  H3    11.04300  -1.59500 -21.65600
   53    1 UNL  H4     5.52400   0.01300 -23.98200
   54    1 UNL  H5     9.53200   1.68100 -21.27300
   55    1 UNL  H6     8.48900  -4.07700 -21.59500
   56    1 UNL  H7     9.40100  -2.69100 -21.04800
   57    1 UNL  H8    10.23500  -4.09300 -21.67200
   58    1 UNL  H9    13.56400   3.55900 -22.05100
   59    1 UNL  H10   12.94400   3.75600 -20.42900
   60    1 UNL  H11   12.61700   4.97000 -21.64300
   61    1 UNL  H12    4.77100   1.75700 -24.02600
   62    1 UNL  H13    4.87300   3.36500 -24.70200
   63    1 UNL  H14    5.46200   3.05800 -23.08600
   64    1 UNL  H15   13.33100  -1.79400 -22.09500
   65    1 UNL  H16   12.59900  -2.36900 -24.95200
   66    1 UNL  H17   14.20800  -2.44800 -24.27600
   67    1 UNL  H18   13.37400  -0.91500 -24.37100
   68    1 UNL  H19   11.84400  -4.12600 -23.27100
   69    1 UNL  H20   12.11800  -3.84600 -21.56800
   70    1 UNL  H21   13.46900  -4.17200 -22.62800
   71    1 UNL  H22   13.05700   3.44300 -23.81900
   72    1 UNL  H23   13.55200   0.46100 -23.82000
   73    1 UNL  H24   14.26700   1.60100 -22.70600
   74    1 UNL  H25   14.67100   1.66900 -24.40400
   75    1 UNL  H26   11.78400   1.31000 -25.48900
   76    1 UNL  H27   13.05200   2.43300 -26.02900
   77    1 UNL  H28   10.30600   3.20300 -25.13600
   78    1 UNL  H29   10.88200   3.17800 -26.78500
   79    1 UNL  H30   11.57000   4.30000 -25.63700
   80    1 UNL  H31    7.24000  -4.44400 -22.54200
   81    1 UNL  H32    5.81400  -3.97900 -25.16900
   82    1 UNL  H33    5.39500  -3.22700 -23.64800
   83    1 UNL  H34    5.20600  -4.95200 -23.85100
   84    1 UNL  H35    8.86800  -5.62200 -24.04400
   85    1 UNL  H36    7.57600  -5.59000 -25.26300
   86    1 UNL  H37    7.42500  -6.93400 -22.59600
   87    1 UNL  H38    7.62900  -7.72900 -24.13900
   88    1 UNL  H39    6.14900  -6.86900 -23.78900
   89    1 UNL  H40    7.90500   4.01800 -20.29400
   90    1 UNL  H41    6.73200   1.33200 -20.95000
   91    1 UNL  H42    6.41000   2.82100 -21.80400
   92    1 UNL  H43    5.89900   2.63900 -20.14300
   93    1 UNL  H44    8.46200   1.32700 -19.07900
   94    1 UNL  H45    7.59500   2.63300 -18.30800
   95    1 UNL  H46    9.29100   2.81400 -18.68600
   96    1 UNL  H47    4.56000   0.77400 -26.02300
   97    1 UNL  H48    4.97900  -2.19500 -26.24000
   98    1 UNL  H49    3.70400  -1.28600 -27.01600
   99    1 UNL  H50    3.75500  -1.40700 -25.27400
  100    1 UNL  H51    6.69300  -0.77100 -27.47000
  101    1 UNL  H52    6.61600   0.96800 -27.32500
  102    1 UNL  H53    5.38600   0.11000 -28.22200
  103    1 UNL  H54    6.14800   4.39900 -25.91900
  104    1 UNL  H55    7.40700   6.00000 -23.68300
  105    1 UNL  H56    5.86400   5.18300 -23.59300
  106    1 UNL  H57    6.07500   6.53600 -24.67900
  107    1 UNL  H58    7.78800   5.06700 -27.30500
  108    1 UNL  H59    8.94300   5.28100 -25.97300
  109    1 UNL  H60    6.74700   7.17500 -26.69700
  110    1 UNL  H61    8.44900   7.40400 -27.01600
  111    1 UNL  H62    7.86800   7.36000 -25.36900
Energy ihbfrq 0 inbfrq -1
Open write card unit 14 name tmp.out
Write energy card unit 14
* UNL energy before the optimization
* 
Minimise Abnr Nstep 5000 Tolgrd 0.00001
Write energy card unit 14
* UNL energy after optimization
* 
Write coor card unit 14
* UNL energy after optimization
* 
