* UNL main file generated by charmmgen
* author: Victor Bazterra 2004 CHPC
* 

Read rtf card name h1rwf_CHARMM.rtf

Read param card name h1rwf_CHARMM.prm

Read sequence card
* Reading the coordinates of residue
* 
    1
UNL
Generate UNL setup
Read coor card free
* Residues coordinate
* 
   39
    1    1 UNL  C      3.59400 -11.17800   9.86700
    2    1 UNL  C1     5.57100 -11.15100   7.94800
    3    1 UNL  C2     4.40100 -10.41800   7.70100
    4    1 UNL  C3     3.39800 -10.41000   8.62900
    5    1 UNL  C4     2.61000 -11.21600  10.85600
    6    1 UNL  C5     2.82600 -11.94600  12.00400
    7    1 UNL  C6     4.01300 -12.64200  12.17900
    8    1 UNL  C7     4.99300 -12.61300  11.20900
    9    1 UNL  C8     4.79500 -11.88300  10.04400
   10    1 UNL  O      5.74300 -11.84600   9.08400
   11    1 UNL  O1     6.45900 -11.14900   7.11400
   12    1 UNL  O2     2.25600  -9.71500   8.41500
   13    1 UNL  H      2.23900  -9.00000   9.06400
   14    1 UNL  C9     4.24900  -9.64600   6.41600
   15    1 UNL  C10    3.29300  -8.47200   6.63600
   16    1 UNL  C11    4.04000  -7.17500   6.45800
   17    1 UNL  C12    4.08600  -6.17200   7.58200
   18    1 UNL  O3     4.60100  -6.94000   5.41600
   19    1 UNL  C13    3.69500 -10.55200   5.34900
   20    1 UNL  C14    2.33000 -10.61400   5.13400
   21    1 UNL  C15    1.82100 -11.44500   4.15400
   22    1 UNL  C16    2.67500 -12.21400   3.38800
   23    1 UNL  C17    4.03900 -12.15200   3.60200
   24    1 UNL  C18    4.54900 -11.31700   4.57800
   25    1 UNL  H1     1.72500 -10.70000  10.72800
   26    1 UNL  H2     2.10100 -11.97500  12.73800
   27    1 UNL  H3     4.16400 -13.18600  13.04300
   28    1 UNL  H4     5.87300 -13.13300  11.34900
   29    1 UNL  H5     5.20400  -9.27500   6.10800
   30    1 UNL  H6     2.89200  -8.51900   7.62700
   31    1 UNL  H7     2.49500  -8.52400   5.92500
   32    1 UNL  H8     3.53700  -6.54900   8.42000
   33    1 UNL  H9     3.65000  -5.25100   7.25600
   34    1 UNL  H10    5.10300  -6.00400   7.86800
   35    1 UNL  H11    1.69100 -10.03900   5.70600
   36    1 UNL  H12    0.80200 -11.49100   3.99500
   37    1 UNL  H13    2.29500 -12.83500   2.65600
   38    1 UNL  H14    4.67700 -12.73000   3.03300
   39    1 UNL  H15    5.56800 -11.26500   4.73100
Energy ihbfrq 0 inbfrq -1
Open write card unit 14 name tmp.out
Write energy card unit 14
* UNL energy before the optimization
* 
Minimise Abnr Nstep 5000 Tolgrd 0.00001
Write energy card unit 14
* UNL energy after optimization
* 
Write coor card unit 14
* UNL energy after optimization
* 
