* UNL main file generated by charmmgen
* author: Victor Bazterra 2004 CHPC
* 

Read rtf card name h1ibp_CHARMM.rtf

Read param card name h1ibp_CHARMM.prm

Read sequence card
* Reading the coordinates of residue
* 
    1
UNL
Generate UNL setup
Read coor card free
* Residues coordinate
* 
   33
    1    1 UNL  C      4.18100 -11.46400   9.49500
    2    1 UNL  C1     4.94200 -12.31600   8.71600
    3    1 UNL  C2     5.12300 -12.04700   7.37400
    4    1 UNL  C3     4.54200 -10.92800   6.80900
    5    1 UNL  C4     3.78600 -10.07300   7.58800
    6    1 UNL  C5     3.60100 -10.34500   8.93000
    7    1 UNL  C6     3.98200 -11.75700  10.96000
    8    1 UNL  C7     2.49100 -11.70200  11.29400
    9    1 UNL  C8     4.72000 -10.73300  11.78200
   10    1 UNL  O      4.13600 -10.11300  12.63900
   11    1 UNL  O1     6.02500 -10.50900  11.56200
   12    1 UNL  H      6.41300  -9.65200  11.78800
   13    1 UNL  C9     4.74000 -10.63500   5.34300
   14    1 UNL  C10    4.06700 -11.72600   4.51000
   15    1 UNL  C11    2.67200 -11.26000   4.08900
   16    1 UNL  C12    4.90700 -12.00800   3.26400
   17    1 UNL  H1     5.37500 -13.15300   9.13800
   18    1 UNL  H2     5.69200 -12.68200   6.79300
   19    1 UNL  H3     3.36000  -9.23200   7.16800
   20    1 UNL  H4     3.02900  -9.71200   9.51100
   21    1 UNL  H5     4.36100 -12.73300  11.18300
   22    1 UNL  H6     2.11100 -10.72700  11.07200
   23    1 UNL  H7     2.35100 -11.91100  12.33400
   24    1 UNL  H8     1.96800 -12.43000  10.71000
   25    1 UNL  H9     5.78700 -10.61200   5.12200
   26    1 UNL  H10    4.30500  -9.68600   5.10700
   27    1 UNL  H11    3.98400 -12.61900   5.09400
   28    1 UNL  H12    2.75500 -10.36700   3.50500
   29    1 UNL  H13    2.08400 -11.06300   4.96100
   30    1 UNL  H14    2.20100 -12.02400   3.50700
   31    1 UNL  H15    4.99000 -11.11500   2.68000
   32    1 UNL  H16    4.43600 -12.77200   2.68200
   33    1 UNL  H17    5.88300 -12.33400   3.55800
Energy ihbfrq 0 inbfrq -1
Open write card unit 14 name tmp.out
Write energy card unit 14
* UNL energy before the optimization
* 
Minimise Abnr Nstep 5000 Tolgrd 0.00001
Write energy card unit 14
* UNL energy after optimization
* 
Write coor card unit 14
* UNL energy after optimization
* 
