* UNL main file generated by charmmgen
* author: Victor Bazterra 2004 CHPC
* 

Read rtf card name h1eb1_CHARMM.rtf

Read param card name h1eb1_CHARMM.prm

Read sequence card
* Reading the coordinates of residue
* 
    1
UNL
Generate UNL setup
Read coor card free
* Residues coordinate
* 
  105
    1    1 UNL  O     13.07600  -3.75700   3.73700
    2    1 UNL  O1    12.36000   0.51400   0.81400
    3    1 UNL  O2     9.77300  -3.30400  -0.22100
    4    1 UNL  O3    14.72600  -1.36500   1.85100
    5    1 UNL  O4    11.32500  -2.26600   3.91400
    6    1 UNL  O5    13.10800  -3.72300   1.14500
    7    1 UNL  O6     9.67300  -0.63700  -2.06100
    8    1 UNL  O7    12.12600   2.74900   0.33500
    9    1 UNL  O8    10.68000  -3.41100  -2.33400
   10    1 UNL  N     13.41200  -0.38300   3.49400
   11    1 UNL  N1    11.32800  -5.16100   0.80100
   12    1 UNL  N2     9.82800  -0.11700   0.20100
   13    1 UNL  C     13.60300  -1.55000   4.38000
   14    1 UNL  C1    11.43800  -4.97600  -0.66200
   15    1 UNL  C2    10.25400   1.27300  -0.06500
   16    1 UNL  C3    13.71500   0.72100   1.26000
   17    1 UNL  C4    12.22800  -4.75000   3.11900
   18    1 UNL  C5     8.81000  -2.28400  -0.54200
   19    1 UNL  C6    14.00200  -0.43200   2.21800
   20    1 UNL  C7    12.51500  -2.54000   4.00100
   21    1 UNL  C8    12.26100  -4.49400   1.61000
   22    1 UNL  C9     9.48300  -0.94500  -0.88100
   23    1 UNL  C10   11.67100   1.61000   0.39100
   24    1 UNL  C11   10.60600  -3.80200  -1.17300
   25    1 UNL  C12   12.59200   0.72700   3.98900
   26    1 UNL  C13   10.23500  -5.99400   1.30700
   27    1 UNL  C14    9.61200  -0.50400   1.59600
   28    1 UNL  C15   12.83100  -6.10800   3.44700
   29    1 UNL  C16   14.20900  -5.94700   4.08600
   30    1 UNL  C17   11.90400  -6.90200   4.36700
   31    1 UNL  C18   13.55800  -1.26500   5.87800
   32    1 UNL  C19   13.59400  -2.58100   6.65800
   33    1 UNL  C20   14.71100  -0.32300   6.26800
   34    1 UNL  C21   14.34900   0.66500   7.36800
   35    1 UNL  C22   11.10500  -6.23200  -1.46700
   36    1 UNL  C23    9.85800  -6.01200  -2.32000
   37    1 UNL  C24   12.28800  -6.64000  -2.34500
   38    1 UNL  C25   14.64000   0.68900   0.04600
   39    1 UNL  C26   15.07200   2.10300  -0.34000
   40    1 UNL  C27   13.95700  -0.00100  -1.13400
   41    1 UNL  C28    7.83300  -2.74400  -1.62300
   42    1 UNL  C29    6.80100  -1.65700  -1.91200
   43    1 UNL  C30    7.14400  -4.04100  -1.20700
   44    1 UNL  C31    9.25400   2.28000   0.50500
   45    1 UNL  C32    8.85500   3.29800  -0.56000
   46    1 UNL  C33    9.84000   2.98000   1.72800
   47    1 UNL  H     14.59600  -1.91900   4.22900
   48    1 UNL  H1    12.47300  -4.75600  -0.82000
   49    1 UNL  H2    10.27100   1.35000  -1.13200
   50    1 UNL  H3    13.86400   1.66200   1.74800
   51    1 UNL  H4    11.21600  -4.71200   3.46400
   52    1 UNL  H5     8.22600  -2.11100   0.33800
   53    1 UNL  H6    12.54400   1.49400   3.24500
   54    1 UNL  H7    13.02900   1.12300   4.88200
   55    1 UNL  H8    11.60500   0.37400   4.20200
   56    1 UNL  H9     9.67300  -6.38400   0.48400
   57    1 UNL  H10    9.59500  -5.40300   1.92800
   58    1 UNL  H11   10.63900  -6.80300   1.87900
   59    1 UNL  H12    9.30900  -1.52900   1.63900
   60    1 UNL  H13    8.84800   0.11200   2.02300
   61    1 UNL  H14   10.52100  -0.37700   2.14600
   62    1 UNL  H15   12.94500  -6.65200   2.53300
   63    1 UNL  H16   14.11600  -5.40500   5.00400
   64    1 UNL  H17   14.85100  -5.41100   3.41900
   65    1 UNL  H18   14.62600  -6.91300   4.28300
   66    1 UNL  H19   11.77700  -6.37300   5.28800
   67    1 UNL  H20   12.33300  -7.86200   4.56300
   68    1 UNL  H21   10.95300  -7.02600   3.89300
   69    1 UNL  H22   12.64300  -0.76900   6.12800
   70    1 UNL  H23   14.49900  -3.10500   6.43200
   71    1 UNL  H24   12.75400  -3.18300   6.38100
   72    1 UNL  H25   13.55400  -2.37500   7.70700
   73    1 UNL  H26   15.00400   0.23000   5.40000
   74    1 UNL  H27   15.50200  -0.93700   6.64700
   75    1 UNL  H28   13.55800   1.30200   7.03000
   76    1 UNL  H29   15.20600   1.25900   7.61000
   77    1 UNL  H30   14.02900   0.12900   8.23700
   78    1 UNL  H31   10.90600  -7.02600  -0.77800
   79    1 UNL  H32   10.03800  -5.22000  -3.01700
   80    1 UNL  H33    9.03500  -5.75100  -1.68800
   81    1 UNL  H34    9.62700  -6.91100  -2.85300
   82    1 UNL  H35   12.50200  -5.85700  -3.04200
   83    1 UNL  H36   12.04400  -7.53500  -2.87800
   84    1 UNL  H37   13.14600  -6.81400  -1.72900
   85    1 UNL  H38   15.51300   0.12800   0.30600
   86    1 UNL  H39   14.21000   2.68000  -0.60400
   87    1 UNL  H40   15.73900   2.05700  -1.17500
   88    1 UNL  H41   15.56900   2.56300   0.48900
   89    1 UNL  H42   13.08000   0.54700  -1.40900
   90    1 UNL  H43   13.68200  -0.99700  -0.85500
   91    1 UNL  H44   14.63000  -0.03600  -1.96500
   92    1 UNL  H45    8.38600  -2.92900  -2.52000
   93    1 UNL  H46    6.23600  -1.45700  -1.02600
   94    1 UNL  H47    6.14200  -1.98800  -2.68800
   95    1 UNL  H48    7.30100  -0.76400  -2.22500
   96    1 UNL  H49    6.58400  -3.87600  -0.31000
   97    1 UNL  H50    7.88100  -4.79700  -1.03300
   98    1 UNL  H51    6.48400  -4.36000  -1.98600
   99    1 UNL  H52    8.37500   1.75100   0.81000
  100    1 UNL  H53    9.72200   3.83900  -0.87900
  101    1 UNL  H54    8.13900   3.98000  -0.15100
  102    1 UNL  H55    8.42500   2.78900  -1.39700
  103    1 UNL  H56   10.72200   3.51600   1.44400
  104    1 UNL  H57   10.08900   2.25100   2.47100
  105    1 UNL  H58    9.12000   3.66400   2.12700
Energy ihbfrq 0 inbfrq -1
Open write card unit 14 name tmp.out
Write energy card unit 14
* UNL energy before the optimization
* 
Minimise Abnr Nstep 5000 Tolgrd 0.00001
Write energy card unit 14
* UNL energy after optimization
* 
Write coor card unit 14
* UNL energy after optimization
* 
