* UNL main file generated by charmmgen
* author: Victor Bazterra 2004 CHPC
* 

Read rtf card name h2eb_CHARMM.rtf

Read param card name h2eb_CHARMM.prm

Read sequence card
* Reading the coordinates of residue
* 
    1
UNL
Generate UNL setup
Read coor card free
* Residues coordinate
* 
  102
    1    1 UNL  O      5.88300   6.50700 -24.24000
    2    1 UNL  O1    10.95700   6.47000 -25.25400
    3    1 UNL  O2     9.02300  10.68200 -24.32100
    4    1 UNL  O3     8.14000   6.67800 -22.97700
    5    1 UNL  O4     6.87900   9.27900 -22.41700
    6    1 UNL  O5    12.76600   9.14800 -25.00000
    7    1 UNL  O6     6.64900   7.59500 -26.12300
    8    1 UNL  O7    12.36700   6.65600 -23.44300
    9    1 UNL  O8     9.68000  12.84000 -24.74900
   10    1 UNL  N      9.21300   4.92400 -24.03600
   11    1 UNL  N1     6.12300   9.88600 -24.52500
   12    1 UNL  N2    10.73900   9.57400 -26.06000
   13    1 UNL  C     10.45200   5.19900 -23.28000
   14    1 UNL  C1     5.18900   8.74100 -24.54900
   15    1 UNL  C2    10.84500  11.03300 -25.85300
   16    1 UNL  C3     6.77400   5.39300 -24.46400
   17    1 UNL  C4    11.75500   7.28500 -26.12900
   18    1 UNL  C5     7.99600  11.14000 -23.42100
   19    1 UNL  C6     8.09500   5.72600 -23.76500
   20    1 UNL  C7     6.95500  10.02300 -23.39900
   21    1 UNL  C8    11.80600   8.74800 -25.66600
   22    1 UNL  C9     5.98700   7.56800 -25.09400
   23    1 UNL  C10   11.36400   6.20200 -23.98400
   24    1 UNL  C11    9.78500  11.63200 -24.93100
   25    1 UNL  C12    9.24700   3.85800 -25.04200
   26    1 UNL  C13    6.14300  10.77700 -25.68900
   27    1 UNL  C14    9.59700   9.08200 -26.83400
   28    1 UNL  C15    6.12300   4.17300 -23.83000
   29    1 UNL  C16    4.75400   4.53100 -23.25300
   30    1 UNL  C17    5.99400   3.03900 -24.84600
   31    1 UNL  C18    3.91600   8.93400 -25.36300
   32    1 UNL  C19    4.08100   8.35200 -26.76500
   33    1 UNL  C20    2.72300   8.29600 -24.65500
   34    1 UNL  C21   11.24700   3.94400 -22.92100
   35    1 UNL  C22   11.63200   3.95400 -21.44200
   36    1 UNL  C23   12.49300   3.82400 -23.79600
   37    1 UNL  C24    8.61600  11.36000 -22.04400
   38    1 UNL  C25    9.95400  10.63000 -21.93200
   39    1 UNL  C26    8.79400  12.85000 -21.76300
   40    1 UNL  C27   13.14500   6.68800 -26.35100
   41    1 UNL  C28   14.00000   7.61900 -27.20800
   42    1 UNL  C29   13.04000   5.30800 -26.99900
   43    1 UNL  C30   10.88100  11.78300 -27.18500
   44    1 UNL  C31    9.60200  12.59500 -27.37500
   45    1 UNL  C32   12.10800  12.68700 -27.25600
   46    1 UNL  H     10.10700   5.63400 -22.36500
   47    1 UNL  H1     4.82400   8.59400 -23.55400
   48    1 UNL  H2    11.77600  11.16400 -25.34200
   49    1 UNL  H3     6.95800   5.20400 -25.50100
   50    1 UNL  H4    11.27200   7.29100 -27.08400
   51    1 UNL  H5     7.54900  12.06500 -23.71900
   52    1 UNL  H6     8.28600   3.77400 -25.50500
   53    1 UNL  H7     9.49800   2.93100 -24.57100
   54    1 UNL  H8     9.98100   4.09100 -25.78400
   55    1 UNL  H9     5.41300  10.45100 -26.40000
   56    1 UNL  H10    7.11400  10.75500 -26.13800
   57    1 UNL  H11    5.91700  11.77500 -25.37800
   58    1 UNL  H12    8.91500   9.88700 -27.01500
   59    1 UNL  H13    9.10000   8.31000 -26.28500
   60    1 UNL  H14    9.94200   8.69000 -27.76800
   61    1 UNL  H15    6.75000   3.83900 -23.03000
   62    1 UNL  H16    4.11200   4.86800 -24.04000
   63    1 UNL  H17    4.86500   5.30800 -22.52600
   64    1 UNL  H18    4.32600   3.66700 -22.78900
   65    1 UNL  H19    5.36900   3.35400 -25.65500
   66    1 UNL  H20    5.56000   2.18300 -24.37200
   67    1 UNL  H21    6.96300   2.78500 -25.22200
   68    1 UNL  H22    3.73200   9.98400 -25.45400
   69    1 UNL  H23    4.26600   7.30100 -26.69500
   70    1 UNL  H24    4.90500   8.82800 -27.25400
   71    1 UNL  H25    3.18700   8.52000 -27.32800
   72    1 UNL  H26    2.88900   7.24400 -24.55500
   73    1 UNL  H27    1.83600   8.46400 -25.22900
   74    1 UNL  H28    2.60800   8.73300 -23.68500
   75    1 UNL  H29   10.62500   3.09300 -23.10300
   76    1 UNL  H30   12.25600   4.80000 -21.24100
   77    1 UNL  H31   12.16300   3.05600 -21.20600
   78    1 UNL  H32   10.74700   4.01300 -20.84300
   79    1 UNL  H33   13.12900   4.66800 -23.62800
   80    1 UNL  H34   12.20400   3.79400 -24.82600
   81    1 UNL  H35   13.01900   2.92600 -23.54700
   82    1 UNL  H36    7.95000  10.95700 -21.31000
   83    1 UNL  H37   10.63500  11.02000 -22.65900
   84    1 UNL  H38    9.80600   9.58500 -22.10600
   85    1 UNL  H39   10.35800  10.77400 -20.95200
   86    1 UNL  H40    9.45800  13.27300 -22.48700
   87    1 UNL  H41    9.20400  12.98200 -20.78300
   88    1 UNL  H42    7.84500  13.34000 -21.82100
   89    1 UNL  H43   13.61900   6.57800 -25.39800
   90    1 UNL  H44   13.54200   7.74200 -28.16700
   91    1 UNL  H45   14.97500   7.19600 -27.33000
   92    1 UNL  H46   14.08200   8.57100 -26.72700
   93    1 UNL  H47   12.56800   5.39800 -27.95500
   94    1 UNL  H48   12.45900   4.66300 -26.37300
   95    1 UNL  H49   14.02000   4.89700 -27.12300
   96    1 UNL  H50   10.94500  11.06600 -27.97700
   97    1 UNL  H51    9.51900  13.31900 -26.59100
   98    1 UNL  H52    8.75600  11.94000 -27.34600
   99    1 UNL  H53    9.63400  13.09500 -28.32000
  100    1 UNL  H54   12.06200  13.41200 -26.47100
  101    1 UNL  H55   12.12900  13.18600 -28.20200
  102    1 UNL  H56   12.99300  12.09600 -27.14500
Energy ihbfrq 0 inbfrq -1
Open write card unit 14 name tmp.out
Write energy card unit 14
* UNL energy before the optimization
* 
Minimise Abnr Nstep 5000 Tolgrd 0.00001
Write energy card unit 14
* UNL energy after optimization
* 
Write coor card unit 14
* UNL energy after optimization
* 
