* UNL main file generated by charmmgen
* author: Victor Bazterra 2004 CHPC
* 

Read rtf card name h1ea_CHARMM.rtf

Read param card name h1ea_CHARMM.prm

Read sequence card
* Reading the coordinates of residue
* 
    1
UNL
Generate UNL setup
Read coor card free
* Residues coordinate
* 
  111
    1    1 UNL  O     12.32100  -2.99000   2.87500
    2    1 UNL  O1     9.08700  -1.70500  -0.82100
    3    1 UNL  O2    12.14600  -5.43200  -0.35800
    4    1 UNL  O3    10.18600  -1.55800   2.53900
    5    1 UNL  O4    15.07500  -7.08400   0.40400
    6    1 UNL  O5     9.41900  -3.99600   0.43600
    7    1 UNL  O6    14.56800  -3.50400   2.96600
    8    1 UNL  O7    11.32800  -1.41000  -1.29300
    9    1 UNL  O8    12.11900  -7.73300  -0.34200
   10    1 UNL  N     11.35900  -0.08500   1.18300
   11    1 UNL  N1    13.96200  -6.10600   2.18800
   12    1 UNL  N2     9.74000  -5.29100  -1.46300
   13    1 UNL  C     10.19700   0.06500   0.28400
   14    1 UNL  C1    12.88000  -5.25500   2.72700
   15    1 UNL  C2    10.04600  -6.49900  -0.66300
   16    1 UNL  C3    12.56100  -1.56800   2.79800
   17    1 UNL  C4     9.03000  -2.88300  -1.64800
   18    1 UNL  C5    13.55900  -5.30700  -0.17600
   19    1 UNL  C6    11.26100  -1.05700   2.19000
   20    1 UNL  C7    14.25500  -6.25800   0.82300
   21    1 UNL  C8     9.41600  -4.09900  -0.79700
   22    1 UNL  C9    13.39400  -3.83200   2.87500
   23    1 UNL  C10   10.30200  -1.08800  -0.70600
   24    1 UNL  C11   11.55600  -6.65400  -0.47900
   25    1 UNL  C12   12.58100   0.66900   0.89600
   26    1 UNL  C13   14.78500  -6.84200   3.14800
   27    1 UNL  C14    9.87200  -5.42000  -2.91800
   28    1 UNL  C15   12.76800  -0.99300   4.18700
   29    1 UNL  C16   11.63400  -0.03500   4.54800
   30    1 UNL  C17   14.11800  -0.28500   4.28200
   31    1 UNL  C18   12.27700  -5.73400   4.04600
   32    1 UNL  C19   12.82800  -4.89500   5.20100
   33    1 UNL  C20   10.73900  -5.67200   4.04300
   34    1 UNL  C21   10.10200  -6.42800   2.88600
   35    1 UNL  C22   10.08600   1.38300  -0.46900
   36    1 UNL  C23    9.80100   1.11200  -1.94900
   37    1 UNL  C24    8.99600   2.30200   0.11100
   38    1 UNL  C25    7.58900   1.94400  -0.35100
   39    1 UNL  C26   14.21000  -5.37700  -1.55900
   40    1 UNL  C27   13.17000  -5.71600  -2.62400
   41    1 UNL  C28   14.90800  -4.05900  -1.89000
   42    1 UNL  C29    7.59400  -3.01900  -2.13400
   43    1 UNL  C30    6.84300  -1.69700  -1.97500
   44    1 UNL  C31    6.87300  -4.13700  -1.38300
   45    1 UNL  C32    9.41700  -7.77400  -1.22300
   46    1 UNL  C33    7.89700  -7.60800  -1.32100
   47    1 UNL  C34    9.98700  -8.15800  -2.60200
   48    1 UNL  C35   10.59600  -9.55100  -2.63900
   49    1 UNL  H      9.31400   0.05700   0.88800
   50    1 UNL  H1    12.07900  -5.31100   2.02000
   51    1 UNL  H2     9.59500  -6.35300   0.29600
   52    1 UNL  H3    13.43200  -1.30100   2.23600
   53    1 UNL  H4     9.70000  -2.81700  -2.48000
   54    1 UNL  H5    13.70000  -4.36400   0.30800
   55    1 UNL  H6    12.40100   1.34600   0.08700
   56    1 UNL  H7    13.36300  -0.00900   0.62600
   57    1 UNL  H8    12.87200   1.22100   1.76500
   58    1 UNL  H9    15.52300  -7.41200   2.62200
   59    1 UNL  H10   14.16400  -7.50100   3.71800
   60    1 UNL  H11   15.27000  -6.15100   3.80500
   61    1 UNL  H12    9.62600  -4.48800  -3.38200
   62    1 UNL  H13    9.20700  -6.18100  -3.27000
   63    1 UNL  H14   10.87900  -5.68600  -3.16300
   64    1 UNL  H15   12.76200  -1.80200   4.88800
   65    1 UNL  H16   11.62400   0.78200   3.85700
   66    1 UNL  H17   11.78400   0.33800   5.53900
   67    1 UNL  H18   10.70000  -0.55400   4.50000
   68    1 UNL  H19   14.14400   0.52800   3.58700
   69    1 UNL  H20   14.90100  -0.97700   4.05000
   70    1 UNL  H21   14.25500   0.08900   5.27500
   71    1 UNL  H22   12.55500  -6.76000   4.17200
   72    1 UNL  H23   12.54500  -3.87200   5.06600
   73    1 UNL  H24   13.89500  -4.97000   5.21900
   74    1 UNL  H25   12.42900  -5.25600   6.12600
   75    1 UNL  H26   10.44200  -4.64600   3.98100
   76    1 UNL  H27   10.40400  -6.13900   4.94600
   77    1 UNL  H28   10.41300  -5.99100   1.96000
   78    1 UNL  H29    9.03700  -6.37200   2.96700
   79    1 UNL  H30   10.40900  -7.45300   2.91700
   80    1 UNL  H31   11.02200   1.89100  -0.36100
   81    1 UNL  H32    8.86400   0.60400  -2.04500
   82    1 UNL  H33   10.58000   0.50200  -2.35600
   83    1 UNL  H34    9.76000   2.04000  -2.48000
   84    1 UNL  H35    9.20600   3.30700  -0.19000
   85    1 UNL  H36    9.01800   2.18300   1.17400
   86    1 UNL  H37    7.52500   2.05000  -1.41400
   87    1 UNL  H38    6.88300   2.59800   0.11600
   88    1 UNL  H39    7.37100   0.93200  -0.08000
   89    1 UNL  H40   14.94500  -6.15400  -1.54700
   90    1 UNL  H41   12.42400  -4.94900  -2.65100
   91    1 UNL  H42   12.71000  -6.65300  -2.38800
   92    1 UNL  H43   13.64700  -5.78400  -3.57900
   93    1 UNL  H44   14.18800  -3.26800  -1.90700
   94    1 UNL  H45   15.37700  -4.13500  -2.84900
   95    1 UNL  H46   15.64900  -3.85100  -1.14600
   96    1 UNL  H47    7.61700  -3.27200  -3.17400
   97    1 UNL  H48    6.81000  -1.42800  -0.94000
   98    1 UNL  H49    5.84600  -1.80600  -2.34700
   99    1 UNL  H50    7.34800  -0.93200  -2.52700
  100    1 UNL  H51    6.84000  -3.90200  -0.34000
  101    1 UNL  H52    7.39800  -5.05800  -1.52500
  102    1 UNL  H53    5.87600  -4.23300  -1.75800
  103    1 UNL  H54    9.65800  -8.56700  -0.54600
  104    1 UNL  H55    7.66800  -6.81400  -2.00000
  105    1 UNL  H56    7.50000  -7.37700  -0.35400
  106    1 UNL  H57    7.46100  -8.51800  -1.67700
  107    1 UNL  H58   10.74500  -7.45000  -2.86500
  108    1 UNL  H59    9.17000  -8.15300  -3.29300
  109    1 UNL  H60   11.42000  -9.59800  -1.95800
  110    1 UNL  H61   10.93900  -9.76400  -3.63000
  111    1 UNL  H62    9.85700 -10.27100  -2.35500
Energy ihbfrq 0 inbfrq -1
Open write card unit 14 name tmp.out
Write energy card unit 14
* UNL energy before the optimization
* 
Minimise Abnr Nstep 5000 Tolgrd 0.00001
Write energy card unit 14
* UNL energy after optimization
* 
Write coor card unit 14
* UNL energy after optimization
* 
