* UNL main file generated by charmmgen
* author: Victor Bazterra 2004 CHPC
* 

Read rtf card name h1suc_CHARMM.rtf

Read param card name h1suc_CHARMM.prm

Read sequence card
* Reading the coordinates of residue
* 
    1
UNL
Generate UNL setup
Read coor card free
* Residues coordinate
* 
   45
    1    1 UNL  O      4.41400  -7.71500   7.70500
    2    1 UNL  C      3.53800  -8.76800   7.29700
    3    1 UNL  O1     2.70300  -9.16600   8.40000
    4    1 UNL  C1     3.31400 -10.29500   9.05500
    5    1 UNL  C2     4.64400 -10.55100   8.35500
    6    1 UNL  C3     4.35600 -10.01300   6.96900
    7    1 UNL  C4     3.47200  -9.99700  10.53500
    8    1 UNL  O2     2.35300 -10.52200  11.23000
    9    1 UNL  H      2.06400  -9.85000  11.87200
   10    1 UNL  O3     4.94700 -11.93300   8.33200
   11    1 UNL  H1     5.21600 -12.18800   9.23000
   12    1 UNL  O4     5.53200  -9.73200   6.23800
   13    1 UNL  H2     5.77200  -8.80600   6.41500
   14    1 UNL  C5     2.68000  -8.29800   6.13300
   15    1 UNL  O5     2.38200  -9.41200   5.30800
   16    1 UNL  H3     1.80100  -9.09700   4.59500
   17    1 UNL  C6     4.11000  -6.49600   7.03100
   18    1 UNL  O6     3.97100  -5.43100   7.96800
   19    1 UNL  C7     3.64400  -4.15900   7.39300
   20    1 UNL  C8     4.67000  -3.73800   6.32600
   21    1 UNL  C9     5.01700  -4.85700   5.33500
   22    1 UNL  C10    5.23800  -6.19700   6.04200
   23    1 UNL  C11    2.19900  -4.13000   6.90100
   24    1 UNL  O7     2.06900  -3.09300   5.94700
   25    1 UNL  H4     2.32800  -2.26100   6.37800
   26    1 UNL  O8     5.88000  -3.35900   6.99000
   27    1 UNL  H5     5.63900  -3.02200   7.86900
   28    1 UNL  O9     3.96300  -5.01500   4.38900
   29    1 UNL  H6     4.26100  -5.65700   3.72300
   30    1 UNL  O10    6.48800  -6.16900   6.73400
   31    1 UNL  H7     6.64200  -5.25200   7.01600
   32    1 UNL  H8     2.71300 -11.17800   8.98800
   33    1 UNL  H9     5.49100 -10.09800   8.82700
   34    1 UNL  H10    3.84800 -10.70300   6.32800
   35    1 UNL  H11    3.52400  -8.93900  10.68500
   36    1 UNL  H12    4.37100 -10.44700  10.90200
   37    1 UNL  H13    3.21300  -7.56300   5.56700
   38    1 UNL  H14    1.77400  -7.86400   6.50100
   39    1 UNL  H15    3.18300  -6.59100   6.50500
   40    1 UNL  H16    3.70900  -3.41600   8.16100
   41    1 UNL  H17    4.23000  -2.93600   5.77000
   42    1 UNL  H18    5.92500  -4.57300   4.84500
   43    1 UNL  H19    5.24600  -6.97000   5.30200
   44    1 UNL  H20    1.54100  -3.94700   7.72500
   45    1 UNL  H21    1.94400  -5.07000   6.45700
Energy ihbfrq 0 inbfrq -1
Open write card unit 14 name tmp.out
Write energy card unit 14
* UNL energy before the optimization
* 
Minimise Abnr Nstep 5000 Tolgrd 0.00001
Write energy card unit 14
* UNL energy after optimization
* 
Write coor card unit 14
* UNL energy after optimization
* 
