* UNL main file generated by charmmgen
* author: Victor Bazterra 2004 CHPC
* 

Read rtf card name h1eb_CHARMM.rtf

Read param card name h1eb_CHARMM.prm

Read sequence card
* Reading the coordinates of residue
* 
    1
UNL
Generate UNL setup
Read coor card free
* Residues coordinate
* 
  102
    1    1 UNL  O     13.09700  -3.79000   3.73300
    2    1 UNL  O1     9.78500  -3.33100  -0.21700
    3    1 UNL  O2    12.36600   0.49000   0.82700
    4    1 UNL  O3    13.12400  -3.74600   1.14200
    5    1 UNL  O4    14.73700  -1.38700   1.85300
    6    1 UNL  O5     9.67700  -0.65800  -2.04800
    7    1 UNL  O6    11.34300  -2.30400   3.91800
    8    1 UNL  O7    10.69100  -3.43000  -2.33200
    9    1 UNL  O8    12.12400   2.72500   0.35700
   10    1 UNL  N     11.34900  -5.18700   0.79500
   11    1 UNL  N1    13.42400  -0.41500   3.50100
   12    1 UNL  N2     9.83300  -0.14600   0.21500
   13    1 UNL  C     11.45500  -4.99800  -0.66700
   14    1 UNL  C1    13.62000  -1.58300   4.38400
   15    1 UNL  C2    10.25600   1.24600  -0.04600
   16    1 UNL  C3    12.25100  -4.78300   3.11300
   17    1 UNL  C4     8.82100  -2.31200  -0.53300
   18    1 UNL  C5    13.72100   0.69900   1.27100
   19    1 UNL  C6    12.28000  -4.52100   1.60500
   20    1 UNL  C7    14.01300  -0.45800   2.22500
   21    1 UNL  C8     9.49000  -0.97100  -0.86900
   22    1 UNL  C9    12.53300  -2.57500   4.00300
   23    1 UNL  C10   10.62000  -3.82300  -1.17300
   24    1 UNL  C11   11.67300   1.58600   0.41000
   25    1 UNL  C12   10.25800  -6.02600   1.30000
   26    1 UNL  C13   12.60300   0.69200   4.00200
   27    1 UNL  C14    9.62200  -0.53800   1.61000
   28    1 UNL  C15   12.85700  -6.14100   3.43500
   29    1 UNL  C16   14.25600  -5.98000   4.03000
   30    1 UNL  C17   11.95700  -6.92200   4.39200
   31    1 UNL  C18   13.57700  -1.30400   5.88100
   32    1 UNL  C19   13.64400  -2.60900   6.67200
   33    1 UNL  C20   14.71600  -0.37200   6.28700
   34    1 UNL  C21   11.12400  -6.25100  -1.47600
   35    1 UNL  C22   12.31300  -6.66000  -2.34600
   36    1 UNL  C23    9.88300  -6.02800  -2.33800
   37    1 UNL  C24   14.64300   0.67400   0.05500
   38    1 UNL  C25   13.95700  -0.01200  -1.12700
   39    1 UNL  C26   15.07500   2.08800  -0.32500
   40    1 UNL  C27    7.84300  -2.77200  -1.61400
   41    1 UNL  C28    6.81900  -1.67800  -1.91300
   42    1 UNL  C29    7.14200  -4.06200  -1.19200
   43    1 UNL  C30    9.25400   2.24900   0.53000
   44    1 UNL  C31    9.83800   2.94100   1.75800
   45    1 UNL  C32    8.85700   3.27300  -0.52900
   46    1 UNL  H     12.49000  -4.77600  -0.82600
   47    1 UNL  H1    14.61400  -1.94800   4.23100
   48    1 UNL  H2    10.27200   1.32600  -1.11300
   49    1 UNL  H3    11.23900  -4.74900   3.46000
   50    1 UNL  H4     8.23900  -2.14200   0.34900
   51    1 UNL  H5    13.86900   1.63800   1.76200
   52    1 UNL  H6     9.69600  -6.41400   0.47600
   53    1 UNL  H7     9.61700  -5.43900   1.92400
   54    1 UNL  H8    10.66500  -6.83600   1.86800
   55    1 UNL  H9    12.55000   1.46100   3.26000
   56    1 UNL  H10   13.04300   1.08700   4.89400
   57    1 UNL  H11   11.61700   0.33600   4.21700
   58    1 UNL  H12    9.32100  -1.56400   1.65100
   59    1 UNL  H13    8.85800   0.07500   2.04100
   60    1 UNL  H14   10.53300  -0.41200   2.15800
   61    1 UNL  H15   12.93900  -6.69400   2.52200
   62    1 UNL  H16   14.19300  -5.42900   4.94500
   63    1 UNL  H17   14.87900  -5.45300   3.33800
   64    1 UNL  H18   14.67500  -6.94600   4.22400
   65    1 UNL  H19   11.86300  -6.38400   5.31200
   66    1 UNL  H20   12.38800  -7.88300   4.58300
   67    1 UNL  H21   10.99000  -7.04600   3.95100
   68    1 UNL  H22   12.65000  -0.82000   6.10600
   69    1 UNL  H23   14.56600  -3.10800   6.45900
   70    1 UNL  H24   12.82500  -3.23800   6.39200
   71    1 UNL  H25   13.58800  -2.39500   7.71900
   72    1 UNL  H26   15.65400  -0.83900   6.06900
   73    1 UNL  H27   14.65400  -0.16900   7.33600
   74    1 UNL  H28   14.63900   0.54500   5.74100
   75    1 UNL  H29   10.91700  -7.04500  -0.78900
   76    1 UNL  H30   12.53400  -5.87600  -3.04000
   77    1 UNL  H31   12.07200  -7.55300  -2.88300
   78    1 UNL  H32   13.16600  -6.83700  -1.72400
   79    1 UNL  H33   10.06900  -5.23600  -3.03300
   80    1 UNL  H34    9.05600  -5.76600  -1.71200
   81    1 UNL  H35    9.65500  -6.92600  -2.87300
   82    1 UNL  H36   15.51700   0.11300   0.31100
   83    1 UNL  H37   13.07900   0.53600  -1.39700
   84    1 UNL  H38   13.68400  -1.00900  -0.85100
   85    1 UNL  H39   14.62800  -0.04300  -1.96000
   86    1 UNL  H40   14.21300   2.66700  -0.58500
   87    1 UNL  H41   15.74100   2.04500  -1.16100
   88    1 UNL  H42   15.57400   2.54400   0.50500
   89    1 UNL  H43    8.39800  -2.96800  -2.50800
   90    1 UNL  H44    6.25300  -1.46800  -1.03000
   91    1 UNL  H45    6.16000  -2.00900  -2.68800
   92    1 UNL  H46    7.32700  -0.79100  -2.23000
   93    1 UNL  H47    6.58000  -3.88700  -0.29800
   94    1 UNL  H48    7.87300  -4.82200  -1.01100
   95    1 UNL  H49    6.48200  -4.38000  -1.97100
   96    1 UNL  H50    8.37500   1.71800   0.83100
   97    1 UNL  H51   10.72000   3.47900   1.47900
   98    1 UNL  H52   10.08600   2.20800   2.49600
   99    1 UNL  H53    9.11700   3.62200   2.16000
  100    1 UNL  H54    9.72400   3.81600  -0.84300
  101    1 UNL  H55    8.14100   3.95300  -0.11700
  102    1 UNL  H56    8.42800   2.76900  -1.36900
Energy ihbfrq 0 inbfrq -1
Open write card unit 14 name tmp.out
Write energy card unit 14
* UNL energy before the optimization
* 
Minimise Abnr Nstep 5000 Tolgrd 0.00001
Write energy card unit 14
* UNL energy after optimization
* 
Write coor card unit 14
* UNL energy after optimization
* 
