* UNL main file generated by charmmgen
* author: Victor Bazterra 2004 CHPC
* 

Read rtf card name h1ea1_CHARMM.rtf

Read param card name h1ea1_CHARMM.prm

Read sequence card
* Reading the coordinates of residue
* 
    1
UNL
Generate UNL setup
Read coor card free
* Residues coordinate
* 
  108
    1    1 UNL  O      9.27500  -1.54000  -0.63800
    2    1 UNL  O1    12.20400  -5.37600  -0.24700
    3    1 UNL  O2    12.45500  -3.01000   3.03600
    4    1 UNL  O3     9.52600  -3.86700   0.57100
    5    1 UNL  O4    11.52400  -1.30900  -1.09900
    6    1 UNL  O5    10.37000  -1.50100   2.72600
    7    1 UNL  O6    12.10100  -7.67500  -0.28000
    8    1 UNL  O7    15.07500  -7.14000   0.48300
    9    1 UNL  O8    14.68300  -3.60000   3.11900
   10    1 UNL  N      9.80800  -5.13100  -1.35300
   11    1 UNL  N1    11.59400  -0.03900   1.40300
   12    1 UNL  N2    13.99200  -6.16400   2.28600
   13    1 UNL  C     10.07200  -6.36600  -0.57800
   14    1 UNL  C1    10.44100   0.16800   0.50600
   15    1 UNL  C2     9.18100  -2.69800  -1.49000
   16    1 UNL  C3    12.93800  -5.28900   2.84000
   17    1 UNL  C4    12.74200  -1.59600   2.98800
   18    1 UNL  C5    13.62100  -5.30300  -0.06100
   19    1 UNL  C6     9.52300  -3.94300  -0.66300
   20    1 UNL  C7    10.50900  -0.96600  -0.50800
   21    1 UNL  C8    11.46200  -1.02800   2.38900
   22    1 UNL  C9    11.57500  -6.57500  -0.39500
   23    1 UNL  C10   14.28300  -6.29800   0.91900
   24    1 UNL  C11   13.50000  -3.88800   3.01800
   25    1 UNL  C12    9.93900  -5.23400  -2.81100
   26    1 UNL  C13   12.84200   0.67900   1.13300
   27    1 UNL  C14   14.78800  -6.94700   3.23200
   28    1 UNL  C15    7.74100  -2.77500  -1.98000
   29    1 UNL  C16    6.95100  -3.80600  -1.17700
   30    1 UNL  C17    7.07000  -1.40500  -1.89800
   31    1 UNL  C18   10.37500   1.50400  -0.22000
   32    1 UNL  C19    9.41300   1.40100  -1.40600
   33    1 UNL  C20    9.94000   2.65300   0.70700
   34    1 UNL  C21    8.77100   3.46400   0.16400
   35    1 UNL  C22    9.40200  -7.60700  -1.16700
   36    1 UNL  C23    7.89200  -7.38000  -1.27400
   37    1 UNL  C24    9.97000  -7.98200  -2.54700
   38    1 UNL  C25   10.57600  -9.37800  -2.59700
   39    1 UNL  C26   12.96500  -1.05700   4.39000
   40    1 UNL  C27   11.82700  -0.12300   4.79300
   41    1 UNL  C28   14.30900  -0.33700   4.48100
   42    1 UNL  C29   14.27100  -5.36500  -1.44400
   43    1 UNL  C30   13.23500  -5.71100  -2.51300
   44    1 UNL  C31   14.96100  -4.04400  -1.77600
   45    1 UNL  C32   12.31600  -5.77400   4.14900
   46    1 UNL  C33   10.79300  -5.83000   4.03500
   47    1 UNL  C34   12.73200  -4.87400   5.31100
   48    1 UNL  H      9.62500  -6.22600   0.38400
   49    1 UNL  H1     9.55800   0.17600   1.11000
   50    1 UNL  H2     9.85500  -2.63800  -2.31900
   51    1 UNL  H3    12.13700  -5.30300   2.13100
   52    1 UNL  H4    13.62200  -1.34800   2.43200
   53    1 UNL  H5    13.79400  -4.37500   0.44400
   54    1 UNL  H6     9.72500  -4.28500  -3.25600
   55    1 UNL  H7     9.25000  -5.96400  -3.18000
   56    1 UNL  H8    10.93700  -5.52800  -3.05900
   57    1 UNL  H9    12.68600   1.37900   0.33900
   58    1 UNL  H10   13.60100  -0.02000   0.84900
   59    1 UNL  H11   13.15000   1.20200   2.01400
   60    1 UNL  H12   15.50700  -7.53000   2.69600
   61    1 UNL  H13   14.14500  -7.59700   3.78700
   62    1 UNL  H14   15.29400  -6.28600   3.90500
   63    1 UNL  H15    7.75400  -3.08400  -3.00400
   64    1 UNL  H16    6.92700  -3.51400  -0.14800
   65    1 UNL  H17    7.42100  -4.76300  -1.26500
   66    1 UNL  H18    5.95200  -3.86300  -1.55500
   67    1 UNL  H19    7.04800  -1.07900  -0.87900
   68    1 UNL  H20    6.07000  -1.47500  -2.27200
   69    1 UNL  H21    7.62200  -0.70200  -2.48600
   70    1 UNL  H22   11.36200   1.73000  -0.56600
   71    1 UNL  H23    8.43000   1.17500  -1.04900
   72    1 UNL  H24    9.74100   0.62400  -2.06500
   73    1 UNL  H25    9.39600   2.33200  -1.93300
   74    1 UNL  H26   10.77300   3.31000   0.84500
   75    1 UNL  H27    9.61500   2.21000   1.62500
   76    1 UNL  H28    9.05500   3.92600  -0.75800
   77    1 UNL  H29    8.50100   4.21900   0.87300
   78    1 UNL  H30    7.93500   2.81700  -0.00400
   79    1 UNL  H31    9.60600  -8.42300  -0.50500
   80    1 UNL  H32    7.70000  -6.56300  -1.93800
   81    1 UNL  H33    7.49600  -7.15400  -0.30600
   82    1 UNL  H34    7.42400  -8.26500  -1.65300
   83    1 UNL  H35   10.73000  -7.27400  -2.80400
   84    1 UNL  H36    9.15200  -7.97000  -3.23700
   85    1 UNL  H37   11.40100  -9.43300  -1.91800
   86    1 UNL  H38   10.91700  -9.58300  -3.59000
   87    1 UNL  H39    9.83600 -10.09800  -2.31800
   88    1 UNL  H40   12.97900  -1.88300   5.07000
   89    1 UNL  H41   11.79600   0.71100   4.12300
   90    1 UNL  H42   11.98900   0.22700   5.79100
   91    1 UNL  H43   10.89800  -0.65200   4.74700
   92    1 UNL  H44   14.31500   0.49400   3.80700
   93    1 UNL  H45   15.09500  -1.01400   4.21900
   94    1 UNL  H46   14.45900   0.01400   5.48100
   95    1 UNL  H47   15.01100  -6.13800  -1.43000
   96    1 UNL  H48   12.48500  -4.94900  -2.54300
   97    1 UNL  H49   12.78000  -6.65000  -2.27800
   98    1 UNL  H50   13.71500  -5.77600  -3.46700
   99    1 UNL  H51   14.23600  -3.25800  -1.79500
  100    1 UNL  H52   15.43200  -4.11800  -2.73400
  101    1 UNL  H53   15.69900  -3.83000  -1.03200
  102    1 UNL  H54   12.67700  -6.76300   4.34300
  103    1 UNL  H55   10.41400  -4.84800   3.84100
  104    1 UNL  H56   10.38000  -6.19700   4.95100
  105    1 UNL  H57   10.51900  -6.48300   3.23300
  106    1 UNL  H58   12.38000  -3.87900   5.13500
  107    1 UNL  H59   13.79900  -4.86600   5.39100
  108    1 UNL  H60   12.30900  -5.24700   6.22000
Energy ihbfrq 0 inbfrq -1
Open write card unit 14 name tmp.out
Write energy card unit 14
* UNL energy before the optimization
* 
Minimise Abnr Nstep 5000 Tolgrd 0.00001
Write energy card unit 14
* UNL energy after optimization
* 
Write coor card unit 14
* UNL energy after optimization
* 
