* UNL main file generated by charmmgen
* author: Victor Bazterra 2004 CHPC
* 

Read rtf card name h2ibp_CHARMM.rtf

Read param card name h2ibp_CHARMM.prm

Read sequence card
* Reading the coordinates of residue
* 
    1
UNL
Generate UNL setup
Read coor card free
* Residues coordinate
* 
   33
    1    1 UNL  C      7.25400   3.44800 -14.01600
    2    1 UNL  C1     8.15300   2.48000 -14.42200
    3    1 UNL  C2     9.46400   2.53100 -13.99100
    4    1 UNL  C3     9.87700   3.55000 -13.15400
    5    1 UNL  C4     8.97700   4.51400 -12.74400
    6    1 UNL  C5     7.66700   4.46600 -13.17900
    7    1 UNL  C6     5.82400   3.39400 -14.48700
    8    1 UNL  C7     5.13600   2.16300 -13.89300
    9    1 UNL  C8     5.79300   3.31000 -15.99100
   10    1 UNL  O      5.34800   2.32500 -16.53200
   11    1 UNL  O1     6.26100   4.32800 -16.73000
   12    1 UNL  H      7.20500   4.54000 -16.71900
   13    1 UNL  C9    11.30800   3.60500 -12.68400
   14    1 UNL  C10   11.75400   2.21100 -12.24200
   15    1 UNL  C11   12.96300   1.77400 -13.07200
   16    1 UNL  C12   12.13700   2.24300 -10.76200
   17    1 UNL  H1     7.84500   1.71900 -15.04700
   18    1 UNL  H2    10.13500   1.80800 -14.29400
   19    1 UNL  H3     9.28300   5.27000 -12.11200
   20    1 UNL  H4     6.99700   5.19100 -12.87900
   21    1 UNL  H5     5.31100   4.27700 -14.16800
   22    1 UNL  H6     5.64900   1.27900 -14.21100
   23    1 UNL  H7     4.12000   2.12600 -14.22700
   24    1 UNL  H8     5.15800   2.22300 -12.82500
   25    1 UNL  H9    11.38700   4.28300 -11.86000
   26    1 UNL  H10   11.93300   3.94200 -13.48400
   27    1 UNL  H11   10.95200   1.51800 -12.38800
   28    1 UNL  H12   13.76500   2.46700 -12.92600
   29    1 UNL  H13   12.69500   1.75100 -14.10800
   30    1 UNL  H14   13.27400   0.79800 -12.76300
   31    1 UNL  H15   12.93900   2.93600 -10.61600
   32    1 UNL  H16   12.44800   1.26700 -10.45300
   33    1 UNL  H17   11.29200   2.54800 -10.18100
Energy ihbfrq 0 inbfrq -1
Open write card unit 14 name tmp.out
Write energy card unit 14
* UNL energy before the optimization
* 
Minimise Abnr Nstep 5000 Tolgrd 0.00001
Write energy card unit 14
* UNL energy after optimization
* 
Write coor card unit 14
* UNL energy after optimization
* 
